row=9;
column=9;
Board=[|1,7,4,3,8,6,9,2,5|3,2,1,6,4,7,5,8,9|2,5,9,4,3,1,8,6,7|7,4,5,2,9,8,3,1,6|8,6,7,9,5,3,1,4,2|9,1,3,7,6,2,4,5,8|4,9,2,8,7,5,6,3,1|5,8,6,1,2,4,7,9,3|6,3,8,5,1,9,2,7,4|];
horizontal=[|0,1,1,0,1,0,1,0|1,1,0,1,0,1,0,0|0,0,1,1,1,0,1,0|1,0,1,0,1,1,1,0|1,0,0,1,1,1,0,1|1,0,0,1,1,0,0,0|0,1,0,1,1,0,1,1|0,1,1,0,0,0,0,1|1,0,1,1,0,1,0,1|];
vertical=[|0,1,1,0,1,0,1,0,0|1,0,0,1,1,1,0,1,1|0,1,1,1,0,0,1,1,1|0,0,0,0,1,1,1,0,1|0,1,1,1,0,1,0,0,0|1,0,1,0,0,0,0,1,1|0,1,0,1,1,1,0,0,0|0,1,0,0,1,0,1,1,0|];
